3 15
128 174 163 
0 67 57 86 76 104 94 17 23 10 57 49 97 3
1 20 10 96 86 73 63 41 93 94 50 75 95 1
2 64 54 106 96 41 31 42 77 49 35 47 75 3
3 40 30 57 47 65 55 67 62 78 67 29 76 1
4 46 36 16 6 87 77 32 62 96 9 41 77 1
5 54 44 54 44 63 53 40 73 28 87 37 21 2
6 59 49 13 3 60 50 56 18 33 83 15 69 1
7 66 56 42 32 19 9 9 48 5 42 3 19 1
8 60 50 102 92 53 43 53 54 31 9 62 85 1
9 15 5 84 74 52 42 36 62 47 66 80 60 2
10 105 95 52 42 106 96 24 66 71 22 2 2 3
11 87 77 95 85 104 94 22 29 83 44 81 37 1
12 21 11 47 37 74 64 64 84 50 47 45 83 3
13 35 25 84 74 40 30 28 90 79 78 35 75 3
14 51 41 90 80 28 18 88 20 36 19 60 22 3
